%chk=rovis199_wB97XD_DIAG_nocenter.chk
# geom=connectivity test

rovis199_wB97XD

0 1
 Rh                -0.26767800   -0.08154000    0.00000000
 Cl                -1.75084600    0.51300800    1.80602000
 C                 -0.09300500   -2.21202800    0.70518500
 C                  1.01583000   -1.37936800    1.15865400
 C                  1.74578400   -0.95226200    0.00000000
 C                 -1.05005200   -2.89161500    1.63002500
 H                 -1.81496400   -3.45776600    1.07858900
 H                 -1.56658100   -2.14135700    2.25340100
 H                 -0.50920600   -3.58906500    2.29375100
 C                  1.38732300   -1.18536200    2.59497000
 H                  1.84579600   -2.10119500    3.01076200
 H                  0.49095600   -0.94151100    3.18726800
 H                  2.10452300   -0.35879600    2.71725600
 C                  3.08613000   -0.28756900    0.00000000
 H                  3.23854800    0.33672300    0.89319400
 H                  3.23854800    0.33672300   -0.89319400
 P                  0.25782100    2.15185200    0.00000000
 C                 -1.15515400    3.30040200    0.00000000
 H                 -0.79747100    4.34446700    0.00000000
 C                  1.23634100    2.67060800    1.45468300
 H                  2.20196300    2.14170500    1.47763900
 H                  0.65933100    2.39554400    2.35288500
 H                  1.42080700    3.75868100    1.44836700
 C                 -0.09300500   -2.21202800   -0.70518500
 C                  1.01583000   -1.37936800   -1.15865400
 C                 -1.05005200   -2.89161500   -1.63002500
 H                 -1.81496400   -3.45776600   -1.07858900
 H                 -1.56658100   -2.14135700   -2.25340100
 H                 -0.50920600   -3.58906500   -2.29375100
 C                  1.38732300   -1.18536200   -2.59497000
 H                  1.84579600   -2.10119500   -3.01076200
 H                  0.49095600   -0.94151100   -3.18726800
 H                  2.10452300   -0.35879600   -2.71725600
 H                  3.87546700   -1.06068100    0.00000000
 H                 -1.76559100    3.09463900   -0.89228300
 H                 -1.76559100    3.09463900    0.89228300
 C                  1.23634100    2.67060800   -1.45468300
 H                  2.20196300    2.14170500   -1.47763900
 H                  0.65933100    2.39554400   -2.35288500
 H                  1.42080700    3.75868100   -1.44836700
 Cl                -1.75084600    0.51300800   -1.80602000

 1 17 1.0
 2
 3 4 1.0 6 1.0 24 1.5
 4 5 1.5 10 1.0
 5 14 1.0 25 1.5
 6 7 1.0 8 1.0 9 1.0
 7
 8
 9
 10 11 1.0 12 1.0 13 1.0
 11
 12
 13
 14 15 1.0 16 1.0 34 1.0
 15
 16
 17 18 1.0 20 1.0 37 1.0
 18 19 1.0 35 1.0 36 1.0
 19
 20 21 1.0 22 1.0 23 1.0
 21
 22
 23
 24 25 1.0 26 1.0
 25 30 1.0
 26 27 1.0 28 1.0 29 1.0
 27
 28
 29
 30 31 1.0 32 1.0 33 1.0
 31
 32
 33
 34
 35
 36
 37 38 1.0 39 1.0 40 1.0
 38
 39
 40
 41

